data_CrCl2(pyrimidine)
_nottingham_internal_coll_name     CRJPLC
_nottingham_internal_coll_number   18693
_nottingham_internal_coll_client   JP/MJC
_nottingham_internal_coll_type     custom
_nottingham_internal_coll_frame_method  '\w scans'
_nottingham_internal_coll_frame_time  '6.00, 24.00'
_nottingham_internal_coll_frame_width  1.00
_nottingham_internal_coll_user     pcxjp6
_nottingham_internal_coll_date     17/03/2020
_nottingham_internal_coll_location  NOTTS
_nottingham_internal_coll_instrument  'GVB, PL13110001'
_nottingham_internal_NCS_number    ?
_nottingham_internal_process_date  18/03/2020
_nottingham_internal_process_user  pcxjp6/pczmjc/pczspa
_nottingham_internal_solution_date  18/03/2020
_nottingham_internal_solution_user  pcxjp6/pczmjc/pczspa
_nottingham_internal_refinement_date  12/02/2021
_nottingham_internal_refinement_user  pcxjp6/pczmjc/pczspa
_nottingham_internal_self_archive_date  ?
_nottingham_internal_self_validation_date  ?
_nottingham_internal_self_validation_user  ?
_nottingham_internal_validation_date  21/07/2022
_nottingham_internal_validation_user  pczspa
_nottingham_internal_archive_date  21/07/2022
_refine_special_details
 'The diffraction data was processed as a two-component twin using CrysAlisPro 1.171.40.67a (Rigaku OD, 2019) which output hklf4 and hklf5 reflections files. The structure was solved with the hklf4 data and refined as a two component twin against the hklf5 data with the batch scale factor refined to a value of 0.463(3).'
_audit_creation_date               2022-07-21
_audit_creation_method
;
Olex2 1.5
(compiled 2022.04.07 svn.rca3783a0 for OlexSys, GUI svn.r6498)
;
_shelx_SHELXL_version_number       '2018/3'
_publ_contact_author_id_orcid      ?
_publ_section_references
;
Dolomanov, O.V., Bourhis, L.J., Gildea, R.J, Howard, J.A.K. & Puschmann, H.
 (2009), J. Appl. Cryst. 42, 339-341.

Sheldrick, G.M. (2015). Acta Cryst. A71, 3-8.

Sheldrick, G.M. (2015). Acta Cryst. C71, 3-8.
;
_chemical_name_common              ?
_chemical_name_systematic          dichloro-pyrimidine-chromium
_chemical_formula_moiety           'C4 H4 Cl2 Cr N2'
_chemical_formula_sum              'C4 H4 Cl2 Cr N2'
_chemical_formula_weight           202.99
_chemical_melting_point            ?
_chemical_oxdiff_formula           'Cr Cl2 N2 C4 H4'
_chemical_oxdiff_usercomment
 'CRJPLC #18693 GVB-1795 JP/MJC FOMBLIN OIL ON MICROMOUNT'
loop_
  _atom_type_symbol
  _atom_type_description
  _atom_type_scat_dispersion_real
  _atom_type_scat_dispersion_imag
  _atom_type_scat_source
 'C' 'C' 0.0181 0.0091 'International Tables Vol C Tables 4.2.6.8 and 6.1.1.4'
 'H' 'H' 0.0000 0.0000 'International Tables Vol C Tables 4.2.6.8 and 6.1.1.4'
 'N' 'N' 0.0311 0.0180 'International Tables Vol C Tables 4.2.6.8 and 6.1.1.4'
 'Cl' 'Cl' 0.3639 0.7018 'International Tables Vol C Tables 4.2.6.8 and 6.1.1.4'
 'Cr' 'Cr' -0.1635 2.4439
 'International Tables Vol C Tables 4.2.6.8 and 6.1.1.4'

_shelx_space_group_comment
;
The symmetry employed for this shelxl refinement is uniquely defined
by the following loop, which should always be used as a source of
symmetry information in preference to the above space-group names.
They are only intended as comments.
;
_space_group_crystal_system        'monoclinic'
_space_group_IT_number             11
_space_group_name_H-M_alt          'P 1 21/m 1'
_space_group_name_Hall             '-P 2yb'
loop_
  _space_group_symop_operation_xyz
 'x, y, z'
 '-x, y+1/2, -z'
 '-x, -y, -z'
 'x, -y-1/2, z'

_cell_length_a                     3.6688(2)
_cell_length_b                     12.1030(5)
_cell_length_c                     7.0628(3)
_cell_angle_alpha                  90
_cell_angle_beta                   94.236(4)
_cell_angle_gamma                  90
_cell_volume                       312.76(3)
_cell_formula_units_Z              2
_cell_measurement_reflns_used      2820
_cell_measurement_temperature      120(2)
_cell_measurement_theta_max        72.7720
_cell_measurement_theta_min        6.2700
_shelx_estimated_absorpt_T_max     0.598
_shelx_estimated_absorpt_T_min     0.166
_exptl_absorpt_coefficient_mu      22.054
_exptl_absorpt_correction_T_max    0.695
_exptl_absorpt_correction_T_min    0.276
_exptl_absorpt_correction_type     gaussian
_exptl_absorpt_process_details
;
CrysAlisPro 1.171.40.67a (Rigaku Oxford Diffraction, 2019)
Numerical absorption correction based on gaussian integration over
			a multifaceted crystal model
Empirical absorption correction using spherical harmonics,
 implemented in SCALE3 ABSPACK scaling algorithm.
;
_exptl_absorpt_special_details     ?
_exptl_crystal_colour              'clear orangish brown'
_exptl_crystal_colour_lustre       clear
_exptl_crystal_colour_modifier     orangish
_exptl_crystal_colour_primary      brown
_exptl_crystal_density_diffrn      2.156
_exptl_crystal_density_meas        ?
_exptl_crystal_density_method      ?
_exptl_crystal_description         needle
_exptl_crystal_F_000               200
loop_
  _exptl_crystal_face_index_h
  _exptl_crystal_face_index_k
  _exptl_crystal_face_index_l
  _exptl_crystal_face_perp_dist
 0 1 -5 0.0116
 2 -1 -2 0.0541
 0 -7 2 0.0155
 0 -8 0 0.0213
 0 8 0 0.0198
 2 -3 0 0.0518
 0 -1 4 0.0132
 -2 3 -1 0.0523
 -2 -1 1 0.0545

_exptl_crystal_preparation
 'Reaction of pyrimidine and chromium dichloride in methanol solution.'
_exptl_crystal_recrystallization_method
 'Crystal were produced by the vapour diffusion of pyrimidine into a solution of chromium dichloride in methanol.'
_exptl_crystal_size_max            0.127
_exptl_crystal_size_mid            0.046
_exptl_crystal_size_min            0.026
loop_
  _exptl_oxdiff_crystal_face_indexfrac_h
  _exptl_oxdiff_crystal_face_indexfrac_k
  _exptl_oxdiff_crystal_face_indexfrac_l
  _exptl_oxdiff_crystal_face_x
  _exptl_oxdiff_crystal_face_y
  _exptl_oxdiff_crystal_face_z
 -0.0640 1.1752 -4.5088 -0.0250 -0.9909 0.1324
 2.2567 -0.5520 -1.7530 0.2007 -0.1518 0.9678
 0.3238 -7.2126 1.6525 -0.7504 0.5755 0.3251
 0.2382 -7.8140 -0.0967 -0.8940 0.2145 0.3933
 -0.3118 7.7849 0.1385 0.8814 -0.2115 -0.4223
 2.2510 -2.5686 -0.4370 0.0063 0.1810 0.9835
 0.1035 -1.2191 4.4966 0.0250 0.9931 -0.1150
 -2.0810 2.7745 -1.2361 -0.0148 -0.5249 -0.8511
 -2.3198 -0.5889 1.3151 -0.3599 0.0847 -0.9291

_exptl_transmission_factor_max     ?
_exptl_transmission_factor_min     ?
_diffrn_reflns_av_R_equivalents    ?
_diffrn_reflns_av_unetI/netI       0.0071
_diffrn_reflns_Laue_measured_fraction_full  0.997
_diffrn_reflns_Laue_measured_fraction_max  0.989
_diffrn_reflns_limit_h_max         4
_diffrn_reflns_limit_h_min         -4
_diffrn_reflns_limit_k_max         14
_diffrn_reflns_limit_k_min         -14
_diffrn_reflns_limit_l_max         8
_diffrn_reflns_limit_l_min         -8
_diffrn_reflns_number              709
_diffrn_reflns_point_group_measured_fraction_full  0.997
_diffrn_reflns_point_group_measured_fraction_max  0.989
_diffrn_reflns_theta_full          67.684
_diffrn_reflns_theta_max           72.918
_diffrn_reflns_theta_min           6.284
_diffrn_ambient_environment        'N2 gas'
_diffrn_ambient_temperature        120(2)
_diffrn_crystal_treatment          'flash frozen in gaseous N2'
_diffrn_detector                   'CCD plate'
_diffrn_detector_area_resol_mean   5.2349
_diffrn_detector_type              AtlasS2
_diffrn_measured_fraction_theta_full  0.997
_diffrn_measured_fraction_theta_max  0.989
_diffrn_measurement_details
;
List of Runs (angles in degrees, time in seconds):

  # Type    Start    End  Width  t~exp~   \w     \q     \k     \f   Frames
--------------------------------------------------------------------------
  1  \w     -5.00  38.00   1.00    6.00    --  -41.70  19.00 -60.00   43
  2  \w     -5.00  38.00   1.00    6.00    --  -41.70  19.00 -90.00   43
  3  \w     -5.00  38.00   1.00    6.00    --  -41.70  19.00 150.00   43
  4  \w     -5.00  38.00   1.00    6.00    --  -41.70  19.00-180.00   43
  5  \w     -5.00  38.00   1.00    6.00    --  -41.70  19.00-150.00   43
  6  \w     -5.00  38.00   1.00    6.00    --  -41.70  19.00-120.00   43
  7  \w     15.00  89.00   1.00    6.00    --   41.70-110.00  33.00   74
  8  \w     28.00  57.00   1.00   24.00    --  104.36 -30.00-180.00   29
  9  \w     28.00  57.00   1.00   24.00    --  104.36 -30.00 150.00   29
 10  \w     33.00 121.00   1.00   24.00    --  104.36-136.00 173.41   88
 11  \w     76.00 178.00   1.00   24.00    --  104.36  30.00 -90.00  102
 12  \w     31.00  72.00   1.00   24.00    --  104.36 -45.00-150.00   41
 13  \w     28.00  57.00   1.00   24.00    --  104.36 -30.00 -90.00   29
 14  \w     28.00 127.00   1.00   24.00    --  104.36 -77.00 150.00   99
 15  \w     76.00 178.00   1.00   24.00    --  104.36  30.00-180.00  102
 16  \w     28.00  57.00   1.00   24.00    --  104.36 -30.00 -60.00   29
 17  \w     28.00 127.00   1.00   24.00    --  104.36 -77.00 -30.00   99
 18  \w     28.00  57.00   1.00   24.00    --  104.36 -30.00   0.00   29
 19  \w     32.00  93.00   1.00   24.00    --  104.36 -61.00 150.00   61
 20  \w     28.00  57.00   1.00   24.00    --  104.36 -30.00 -30.00   29
 21  \w     31.00  72.00   1.00   24.00    --  104.36 -45.00  30.00   41
 22  \w     38.00 129.00   1.00   24.00    --  104.36-148.00   9.50   91
 23  \w   -114.00 -14.00   1.00    6.00    --  -41.70 -57.00 150.00  100
 24  \w   -114.00 -14.00   1.00    6.00    --  -41.70 -57.00 -30.00  100
 25  \w   -114.00 -14.00   1.00    6.00    --  -41.70 -57.00-120.00  100
 26  \w     14.00 115.00   1.00    6.00    --   41.70  57.00  60.00  101
 27  \w     14.00 115.00   1.00    6.00    --   41.70  57.00 150.00  101
 28  \w     76.00 178.00   1.00   24.00    --  104.36  30.00 -30.00  102
 29  \w     52.00 178.00   1.00   24.00    --  104.36  15.00  90.00  126
 30  \w     75.00 165.00   1.00   24.00    --  104.36  61.00-150.00   90
 31  \w     79.00 177.00   1.00   24.00    --  104.36  45.00 120.00   98
;
_diffrn_measurement_device         'four-circle diffractometer'
_diffrn_measurement_device_type    'GV1000, AtlasS2'
_diffrn_measurement_method         '\w scans'
_diffrn_measurement_specimen_support  'MiTeGen micromount'
_diffrn_orient_matrix_type
 'CrysAlisPro convention (1999,Acta A55,543-557)'
_diffrn_orient_matrix_UB_11        0.1445580000
_diffrn_orient_matrix_UB_12        0.1183987000
_diffrn_orient_matrix_UB_13        0.0343440000
_diffrn_orient_matrix_UB_21        0.0902473000
_diffrn_orient_matrix_UB_22        -0.0273179000
_diffrn_orient_matrix_UB_23        0.2113635000
_diffrn_orient_matrix_UB_31        0.3848174000
_diffrn_orient_matrix_UB_32        -0.0380427000
_diffrn_orient_matrix_UB_33        -0.0447378000
_diffrn_radiation_monochromator    mirror
_diffrn_radiation_probe            x-ray
_diffrn_radiation_type             'Cu K\a'
_diffrn_radiation_wavelength       1.54184
_diffrn_source                     'gradient vaccum rotating-anode X-ray tube'
_diffrn_source_type                'GV1000 (Cu) X-ray Source'
_reflns_Friedel_coverage           0.000
_reflns_Friedel_fraction_full      .
_reflns_Friedel_fraction_max       .
_reflns_number_gt                  673
_reflns_number_total               709
_reflns_special_details
;
 _reflns_Friedel_fraction is defined as the number of unique
 Friedel pairs measured divided by the number that would be
 possible theoretically, ignoring centric projections and
 systematic absences. Completness statistics refer to single and
 composite reflections containing twin component 1 only.
;
_reflns_threshold_expression       'I > 2\s(I)'
_computing_cell_refinement         'CrysAlisPro 1.171.40.67a (Rigaku OD, 2019)'
_computing_data_collection         'CrysAlisPro 1.171.40.67a (Rigaku OD, 2019)'
_computing_data_reduction          'CrysAlisPro 1.171.40.67a (Rigaku OD, 2019)'
_computing_molecular_graphics      'Olex2 1.5 (Dolomanov et al., 2009)'
_computing_publication_material    'Olex2 1.5 (Dolomanov et al., 2009)'
_computing_structure_refinement    'SHELXL 2018/3 (Sheldrick, 2015)'
_computing_structure_solution      'ShelXT n/a (Sheldrick, 2015)'
_refine_diff_density_max           0.383
_refine_diff_density_min           -0.513
_refine_diff_density_rms           0.083
_refine_ls_extinction_coef         .
_refine_ls_extinction_method       none
_refine_ls_goodness_of_fit_ref     1.153
_refine_ls_hydrogen_treatment      constr
_refine_ls_matrix_type             full
_refine_ls_number_parameters       47
_refine_ls_number_reflns           709
_refine_ls_number_restraints       0
_refine_ls_R_factor_all            0.0257
_refine_ls_R_factor_gt             0.0247
_refine_ls_restrained_S_all        1.153
_refine_ls_shift/su_max            0.000
_refine_ls_shift/su_mean           0.000
_refine_ls_structure_factor_coef   Fsqd
_refine_ls_weighting_details
 'w=1/[\s^2^(Fo^2^)+(0.0559P)^2^] where P=(Fo^2^+2Fc^2^)/3'
_refine_ls_weighting_scheme        calc
_refine_ls_wR_factor_gt            0.0715
_refine_ls_wR_factor_ref           0.0719
_olex2_refinement_description
;
1. Twinned data refinement
 Scales: 0.542(3)
 0.458(3)
2. Fixed Uiso
 At 1.2 times of:
  All C(H) groups
3.a Aromatic/amide H refined with riding coordinates:
 C1(H1), C2(H2), C3(H3)
;
_atom_sites_solution_hydrogens     geom
_atom_sites_solution_primary       dual
_atom_sites_solution_secondary     difmap
loop_
  _atom_site_label
  _atom_site_type_symbol
  _atom_site_fract_x
  _atom_site_fract_y
  _atom_site_fract_z
  _atom_site_U_iso_or_equiv
  _atom_site_adp_type
  _atom_site_occupancy
  _atom_site_site_symmetry_order
  _atom_site_calc_flag
  _atom_site_refinement_flags_posn
  _atom_site_refinement_flags_adp
  _atom_site_refinement_flags_occupancy
  _atom_site_disorder_assembly
  _atom_site_disorder_group
 Cr1 Cr 0.500000 0.500000 0.500000 0.0125(2) Uani 1 2 d S . P . .
 Cl1 Cl 0.96113(12) 0.42406(3) 0.72020(6) 0.0153(2) Uani 1 1 d . . . . .
 N1 N 0.5155(5) 0.65191(12) 0.6552(2) 0.0144(4) Uani 1 1 d . . . . .
 C1 C 0.5326(8) 0.750000 0.5692(4) 0.0154(6) Uani 1 2 d S T P . .
 H1 H 0.559037 0.749999 0.436386 0.018 Uiso 1 2 calc R U P . .
 C2 C 0.4792(6) 0.65273(15) 0.8441(3) 0.0163(4) Uani 1 1 d . . . . .
 H2 H 0.466240 0.584456 0.909621 0.020 Uiso 1 1 calc R U . . .
 C3 C 0.4605(9) 0.750000 0.9443(4) 0.0188(6) Uani 1 2 d S T P . .
 H3 H 0.435718 0.750000 1.077249 0.023 Uiso 1 2 calc R U P . .

loop_
  _atom_site_aniso_label
  _atom_site_aniso_U_11
  _atom_site_aniso_U_22
  _atom_site_aniso_U_33
  _atom_site_aniso_U_23
  _atom_site_aniso_U_13
  _atom_site_aniso_U_12
 Cr1 0.0188(3) 0.0048(3) 0.0137(3) -0.00075(14) -0.00064(19) 0.00072(14)
 Cl1 0.0194(3) 0.0103(3) 0.0161(3) 0.00168(14) -0.00025(19) 0.00040(16)
 N1 0.0203(9) 0.0075(8) 0.0153(8) 0.0006(5) 0.0002(6) 0.0000(6)
 C1 0.0215(15) 0.0090(12) 0.0153(12) 0.000 -0.0008(10) 0.000
 C2 0.0241(10) 0.0097(10) 0.0152(8) 0.0017(6) 0.0013(7) -0.0007(8)
 C3 0.0279(18) 0.0120(13) 0.0166(12) 0.000 0.0015(11) 0.000

_geom_special_details
;
 All esds (except the esd in the dihedral angle between two l.s. planes)
 are estimated using the full covariance matrix.  The cell esds are taken
 into account individually in the estimation of esds in distances, angles
 and torsion angles; correlations between esds in cell parameters are only
 used when they are defined by crystal symmetry.  An approximate (isotropic)
 treatment of cell esds is used for estimating esds involving l.s. planes.
;
loop_
  _geom_bond_atom_site_label_1
  _geom_bond_atom_site_label_2
  _geom_bond_distance
  _geom_bond_site_symmetry_2
  _geom_bond_publ_flag
 Cr1 Cl1 2.3952(4) 3_666 ?
 Cr1 Cl1 2.3952(4) . ?
 Cr1 N1 2.1390(15) 3_666 ?
 Cr1 N1 2.1390(15) . ?
 N1 C1 1.337(2) . ?
 N1 C2 1.351(3) . ?
 C1 H1 0.9500 . ?
 C2 H2 0.9500 . ?
 C2 C3 1.378(2) . ?
 C3 H3 0.9500 . ?

loop_
  _geom_angle_atom_site_label_1
  _geom_angle_atom_site_label_2
  _geom_angle_atom_site_label_3
  _geom_angle
  _geom_angle_site_symmetry_1
  _geom_angle_site_symmetry_3
  _geom_angle_publ_flag
 Cl1 Cr1 Cl1 180.0 3_666 . ?
 N1 Cr1 Cl1 90.36(4) 3_666 3_666 ?
 N1 Cr1 Cl1 89.64(4) 3_666 . ?
 N1 Cr1 Cl1 90.36(4) . . ?
 N1 Cr1 Cl1 89.64(4) . 3_666 ?
 N1 Cr1 N1 180.00(9) 3_666 . ?
 C1 N1 Cr1 122.06(14) . . ?
 C1 N1 C2 116.97(17) . . ?
 C2 N1 Cr1 120.77(12) . . ?
 N1 C1 N1 125.2(2) 4_575 . ?
 N1 C1 H1 117.4 4_575 . ?
 N1 C1 H1 117.4 . . ?
 N1 C2 H2 119.1 . . ?
 N1 C2 C3 121.73(18) . . ?
 C3 C2 H2 119.1 . . ?
 C2 C3 C2 117.4(2) . 4_575 ?
 C2 C3 H3 121.3 . . ?
 C2 C3 H3 121.3 4_575 . ?

loop_
  _geom_torsion_atom_site_label_1
  _geom_torsion_atom_site_label_2
  _geom_torsion_atom_site_label_3
  _geom_torsion_atom_site_label_4
  _geom_torsion
  _geom_torsion_site_symmetry_1
  _geom_torsion_site_symmetry_2
  _geom_torsion_site_symmetry_3
  _geom_torsion_site_symmetry_4
  _geom_torsion_publ_flag
 Cr1 N1 C1 N1 174.70(16) . . . 4_575 ?
 Cr1 N1 C2 C3 -175.0(2) . . . . ?
 N1 C2 C3 C2 0.2(5) . . . 4_575 ?
 C1 N1 C2 C3 0.0(4) . . . . ?
 C2 N1 C1 N1 -0.2(4) . . . 4_575 ?

_shelx_res_file
;
TITL crjplc-2_gaussian_twin1_hklf4_a.res in P2(1)/m
    crjplc-2_gaussian_twin1_hklf4.res
    created by SHELXL-2018/3 at 15:38:29 on 21-Jul-2022
REM Old TITL CRJPLC-2_gaussian_twin1_hklf4 in P2(1)/m
REM SHELXT solution in P2(1)/m: R1 0.069, Rweak 0.007, Alpha 0.029
REM <I/s> 0.000 for 0 systematic absences, Orientation as input
REM Formula found by SHELXT: C4 N2 Cl2 Cr
CELL 1.54184 3.6688 12.103 7.0628 90 94.236 90
ZERR 2 0.0002 0.0005 0.0003 0 0.004 0
LATT 1
SYMM -X,0.5+Y,-Z
SFAC C H N Cl Cr
UNIT 8 8 4 4 2

L.S. 20
PLAN  5
SIZE 0.026 0.046 0.127
TEMP -153(2)
CONF
BOND
LIST 4
MORE -1
BOND $H
fmap 2
acta
OMIT 4 0 -2
OMIT 4 -2 -2
OMIT 3 3 -4
REM <olex2.extras>
REM <HklSrc "%.\\CRJPLC-2_gaussian_twin1_hklf5.hkl">
REM </olex2.extras>

WGHT    0.055900
BASF   0.45789
FVAR      14.45968
CR1   5    0.500000    0.500000    0.500000    10.50000    0.01878    0.00475 =
         0.01370   -0.00075   -0.00064    0.00072
CL1   4    0.961135    0.424058    0.720199    11.00000    0.01937    0.01029 =
         0.01612    0.00168   -0.00025    0.00040
N1    3    0.515536    0.651910    0.655164    11.00000    0.02025    0.00750 =
         0.01533    0.00060    0.00016   -0.00004
C1    1    0.532633    0.750000    0.569183    10.50000    0.02149    0.00904 =
         0.01528    0.00000   -0.00078    0.00000
AFIX  43
H1    2    0.559037    0.749999    0.436386    10.50000   -1.20000
AFIX   0
C2    1    0.479224    0.652734    0.844110    11.00000    0.02410    0.00966 =
         0.01519    0.00170    0.00128   -0.00068
AFIX  43
H2    2    0.466240    0.584456    0.909621    11.00000   -1.20000
AFIX   0
C3    1    0.460525    0.750000    0.944309    10.50000    0.02793    0.01196 =
         0.01664    0.00000    0.00149    0.00000
AFIX  43
H3    2    0.435718    0.750000    1.077249    10.50000   -1.20000
AFIX   0
HKLF 5




REM  crjplc-2_gaussian_twin1_hklf4_a.res in P2(1)/m
REM wR2 = 0.0719, GooF = S = 1.153, Restrained GooF = 1.153 for all data
REM R1 = 0.0247 for 673 Fo > 4sig(Fo) and 0.0257 for all 709 data
REM 47 parameters refined using 0 restraints

END

WGHT      0.0563      0.0000

REM Highest difference peak  0.383,  deepest hole -0.513,  1-sigma level  0.083
Q1    1   0.4921  0.6099  0.6057  11.00000  0.05    0.38
Q2    1   0.5130  0.6529  0.7413  11.00000  0.05    0.30
Q3    1   0.9221  0.4381  0.5713  11.00000  0.05    0.29
Q4    1   0.4607  0.5096  0.3470  11.00000  0.05    0.27
Q5    1   0.3990  0.7027  0.8743  11.00000  0.05    0.25
;
_shelx_res_checksum                66555
_shelx_hkl_file
;
   0   0   1 620994. 368.738  -2
   0   0   1 620994. 368.738   1
   0   0   2 36866.4 235.749  -2
   0   0   2 36866.4 235.749   1
   0   0  -3 5601.36 213.791  -2
   0   0  -3 5601.36 213.791   1
   0   0   4 279487. 2744.61  -2
   0   0   4 279487. 2744.61   1
   0   0  -5 504008. 594.981  -2
   0   0  -5 504008. 594.981   1
   0   0  -6 47282.3 324.892  -2
   0   0  -6 47282.3 324.892   1
   0   0  -7 8586.91 198.018  -2
   0   0  -7 8586.91 198.018   1
   0   0  -8 28096.7 273.351  -2
   0   0  -8 28096.7 273.351   1
   0   1   1 22668.4 90.8412  -2
   0  -1   1 22668.4 90.8412   1
   0  -1  -2 8282.55 87.4270  -2
   0   1  -2 8282.55 87.4270   1
   0  -1   3 234806. 419.606  -2
   0   1   3 234806. 419.606   1
   0  -1   4 18031.8 210.154  -2
   0   1   4 18031.8 210.154   1
   0   1  -5 57409.5 147.441  -2
   0  -1  -5 57409.5 147.441   1
   0  -1   6 34645.3 159.896  -2
   0   1   6 34645.3 159.896   1
   0   1  -7 16134.1 144.309  -2
   0  -1  -7 16134.1 144.309   1
   0   1  -8 12575.8 153.867  -2
   0  -1  -8 12575.8 153.867   1
   0   2   0 359138. 364.485  -2
   0  -2   0 359138. 364.485   1
   0  -2   1 444008. 368.499  -2
   0   2   1 444008. 368.499   1
   0   2   2 2508.00 71.1630  -2
   0  -2   2 2508.00 71.1630   1
   0   2   3 94041.0 338.582  -2
   0  -2   3 94041.0 338.582   1
   0   2  -4 479698. 812.831  -2
   0  -2  -4 479698. 812.831   1
   0   2   5 323525. 345.197  -2
   0  -2   5 323525. 345.197   1
   0  -2  -6 36352.1 183.848  -2
   0   2  -6 36352.1 183.848   1
   0   2  -7 4274.36 108.542  -2
   0  -2  -7 4274.36 108.542   1
   0  -2  -8 70199.2 285.862  -2
   0   2  -8 70199.2 285.862   1
   0  -3  -1 495607. 574.586  -2
   0   3  -1 495607. 574.586   1
   0   3   2 76341.5 234.446  -2
   0  -3   2 76341.5 234.446   1
   0  -3   3 165592. 453.729  -2
   0   3   3 165592. 453.729   1
   0   3  -4 102139. 444.482  -2
   0  -3  -4 102139. 444.482   1
   0  -3   5 163999. 264.147  -2
   0   3   5 163999. 264.147   1
   0  -3   6 105864. 246.100  -2
   0   3   6 105864. 246.100   1
   0  -3   7 5680.99 113.834  -2
   0   3   7 5680.99 113.834   1
   0   3   8 87668.7 396.082  -2
   0  -3   8 87668.7 396.082   1
   0   4   0 18838.4 197.367  -2
   0  -4   0 18838.4 197.367   1
   0   4  -1 198065. 307.589  -2
   0  -4  -1 198065. 307.589   1
   0  -4   2 838337. 816.402  -2
   0   4   2 838337. 816.402   1
   0   4  -3 291776. 548.094  -2
   0  -4  -3 291776. 548.094   1
   0   4  -4 168763. 589.015  -2
   0  -4  -4 168763. 589.015   1
   0   4  -5 34810.6 157.478  -2
   0  -4  -5 34810.6 157.478   1
   0   4   6 18471.7 145.230  -2
   0  -4   6 18471.7 145.230   1
   0  -4  -7 91847.9 255.528  -2
   0   4  -7 91847.9 255.528   1
   0  -4  -8 15424.3 177.091  -2
   0   4  -8 15424.3 177.091   1
   0   5  -1 516528. 679.489  -2
   0  -5  -1 516528. 679.489   1
   0  -5   2 42252.7 186.585  -2
   0   5   2 42252.7 186.585   1
   0   5  -3 129141. 367.151  -2
   0  -5  -3 129141. 367.151   1
   0  -5  -4 51065.3 167.530  -2
   0   5  -4 51065.3 167.530   1
   0   5  -5 13219.3 105.540  -2
   0  -5  -5 13219.3 105.540   1
   0   5  -6 52572.6 242.075  -2
   0  -5  -6 52572.6 242.075   1
   0  -5  -7 85.8004 87.4814  -2
   0   5  -7 85.8004 87.4814   1
   0  -5  -8 23490.0 300.117  -2
   0   5  -8 23490.0 300.117   1
   0   6   0 1176.99 167.237  -2
   0  -6   0 1176.99 167.237   1
   0   6   1 142953. 504.923  -2
   0  -6   1 142953. 504.923   1
   0  -6   2 432510. 1119.45  -2
   0   6   2 432510. 1119.45   1
   0  -6   3 368135. 1561.28  -2
   0   6   3 368135. 1561.28   1
   0   6   4 13977.5 91.8117  -2
   0  -6   4 13977.5 91.8117   1
   0  -6  -5 1364.51 102.501  -2
   0   6  -5 1364.51 102.501   1
   0   6   6 329170. 537.061  -2
   0  -6   6 329170. 537.061   1
   0  -6   7 244047. 594.304  -2
   0   6   7 244047. 594.304   1
   0  -6  -8 47368.7 506.678  -2
   0   6  -8 47368.7 506.678   1
   0  -7  -1 25314.9 293.138  -2
   0   7  -1 25314.9 293.138   1
   0   7   2 1667.95 230.876  -2
   0  -7   2 1667.95 230.876   1
   0  -7   3 22935.0 107.670  -2
   0   7   3 22935.0 107.670   1
   0   7  -4 4680.39 86.5976  -2
   0  -7  -4 4680.39 86.5976   1
   0  -7  -5 12537.1 163.306  -2
   0   7  -5 12537.1 163.306   1
   0  -7   6 4757.53 153.904  -2
   0   7   6 4757.53 153.904   1
   0   7   7 10.9357 67.6987  -2
   0  -7   7 10.9357 67.6987   1
   0  -8   0 32257.7 355.509  -2
   0   8   0 32257.7 355.509   1
   0   8   1 106112. 552.514  -2
   0  -8   1 106112. 552.514   1
   0  -8  -2 562185. 598.385  -2
   0   8  -2 562185. 598.385   1
   0  -8  -3 227491. 358.786  -2
   0   8  -3 227491. 358.786   1
   0  -8  -4 3518.69 118.502  -2
   0   8  -4 3518.69 118.502   1
   0   8   5 1792.37 97.1563  -2
   0  -8   5 1792.37 97.1563   1
   0   8  -6 99976.3 306.726  -2
   0  -8  -6 99976.3 306.726   1
   0  -8   7 155544. 321.363  -2
   0   8   7 155544. 321.363   1
   0   9  -1 315745. 427.349  -2
   0  -9  -1 315745. 427.349   1
   0  -9  -2 32426.2 197.841  -2
   0   9  -2 32426.2 197.841   1
   0   9   3 48285.5 185.367  -2
   0  -9   3 48285.5 185.367   1
   0  -9   4 55285.9 205.516  -2
   0   9   4 55285.9 205.516   1
   0   9   5 15585.7 241.883  -2
   0  -9   5 15585.7 241.883   1
   0  -9   6 52801.2 286.695  -2
   0   9   6 52801.2 286.695   1
   0 -10   0 4750.39 143.699  -2
   0  10   0 4750.39 143.699   1
   0  10   1 93779.0 262.833  -2
   0 -10   1 93779.0 262.833   1
   0  10   2 87923.5 260.495  -2
   0 -10   2 87923.5 260.495   1
   0  10   3 82334.4 350.439  -2
   0 -10   3 82334.4 350.439   1
   0 -10  -4 129388. 397.148  -2
   0  10  -4 129388. 397.148   1
   0  10   5 66126.8 265.441  -2
   0 -10   5 66126.8 265.441   1
   0  10   6 14563.5 134.222  -2
   0 -10   6 14563.5 134.222   1
   0  11   1 23420.9 174.433  -2
   0 -11   1 23420.9 174.433   1
   0 -11   2 9709.56 130.035  -2
   0  11   2 9709.56 130.035   1
   0 -11   3 121477. 317.713  -2
   0  11   3 121477. 317.713   1
   0  11  -4 32512.3 274.415  -2
   0 -11  -4 32512.3 274.415   1
   0 -11   5 47550.8 264.484  -2
   0  11   5 47550.8 264.484   1
   0 -12   0 542095. 932.695  -2
   0  12   0 542095. 932.695   1
   0 -12   1 104097. 359.082  -2
   0  12   1 104097. 359.082   1
   0  12  -2 1399.48 149.973  -2
   0 -12  -2 1399.48 149.973   1
   0 -12   3 7199.15 103.498  -2
   0  12   3 7199.15 103.498   1
   0 -12   4 127023. 312.459  -2
   0  12   4 127023. 312.459   1
   0 -12   5 148643. 789.836  -2
   0  12   5 148643. 789.836   1
   0  13  -1 1326.11 114.909  -2
   0 -13  -1 1326.11 114.909   1
   0  13   2 189.215 171.706  -2
   0 -13   2 189.215 171.706   1
   0 -13   3 966.896 101.496  -2
   0  13   3 966.896 101.496   1
   0 -13  -4 66.4867 71.0947  -2
   0  13  -4 66.4867 71.0947   1
   0  14   0 292702. 542.926  -2
   0 -14   0 292702. 542.926   1
   0  14  -1 77511.3 521.159  -2
   0 -14  -1 77511.3 521.159   1
   0 -14   2 18526.7 140.038  -2
   0  14   2 18526.7 140.038   1
   0  14  -3 5662.38 260.161  -2
   0 -14  -3 5662.38 260.161   1
   1   0  -8 3083.98 350.792   1
   1   0  -7 138814. 851.196   1
   1   0  -6 194351. 873.540   1
   1   0  -5 1476.05 166.698   1
   1   0  -4 48423.6 945.960   1
   1   0  -3 173620. 988.949   1
   1   0  -2 811530. 1478.75   1
   1   0  -1 194338. 594.777   1
   1   0   0 249539. 2148.55   1
   1   0   1 29650.5 363.726   1
   1   0   2 496187. 1817.69   1
  -1   0  -3 313770. 1788.29   1
  -1   0  -4 8247.41 486.766   1
  -1   0  -5 4245.98 207.893   1
   1   0   6 99316.0 551.808   1
   1   0   7 160229. 838.289   1
   1   0   8 15183.8 288.835   1
  -1   1   8 10014.1 232.746   1
  -1   1   7 126.723 164.829   1
  -1  -1   6 6424.93 177.856   1
   1   1  -5 1718.86 128.262   1
   1  -1  -4 11155.7 430.233   1
   1   1  -3 650.604 151.479   1
  -1   1   2 4724.69 145.881   1
  -1  -1   1 266988. 793.444   1
  -1  -1   0 5647.99 156.051   1
  -1   1  -1 390798. 851.335   1
  -1   1  -2 25761.4 308.327   1
   1  -1   3 307.755 260.780   1
  -1   1  -4 22641.8 479.006   1
  -1   1  -5 737.395 113.747   1
   1  -1   6 10960.6 182.904   1
   1   1   7 3210.25 151.880   1
   1   1   8 9620.62 147.925   1
  -1   2   8 18439.9 222.106   1
   1   2  -7 79443.1 406.992   1
  -1  -2   6 82152.3 403.342   1
   1  -2  -5 18338.9 202.619   1
  -1   2   4 18895.7 382.682   1
  -1  -2   3 169155. 767.856   1
   1  -2  -2 291052. 816.235   1
   1  -2  -1 154330. 626.103   1
   1  -2   0 56218.8 312.962   1
  -1   2  -1 55432.7 310.935   1
  -1   2  -2 274920. 730.321   1
  -1   2  -3 220413. 1099.57   1
  -1   2  -4 40622.3 663.043   1
   1  -2   5 6475.82 134.428   1
   1  -2   6 55041.0 315.995   1
   1  -2   7 84360.7 400.420   1
  -1   2  -8 37312.9 232.794   1
  -1  -3   8 30676.2 255.021   1
  -1   3   7 15970.5 204.769   1
   1   3  -6 41222.1 319.345   1
   1  -3  -5 15130.2 207.511   1
  -1  -3   4 35447.5 505.029   1
   1   3  -3 172068. 803.188   1
  -1  -3   2 2483.06 170.560   1
   1  -3  -1 333944. 654.512   1
   1  -3   0 16375.6 182.992   1
   1   3   1 210643. 682.043   1
   1   3   2 58509.3 426.038   1
  -1  -3  -3 103352. 873.476   1
   1   3   4 83627.7 308.596   1
  -1  -3  -5 685.529 131.327   1
  -1   3  -6 67885.1 330.436   1
  -1   3  -7 96.0266 129.904   1
   1  -3   8 29361.3 220.897   1
  -1  -4   8 9700.18 198.493   1
   1   4  -7 5411.99 155.070   1
   1   4  -6 1461.24 158.959   1
   1  -4  -5 68298.1 412.272   1
   1   4  -4 227163. 663.547   1
  -1  -4   3 72355.0 747.329   1
  -1  -4   2 117766. 667.860   1
  -1   4   1 109128. 497.765   1
   1   4   0 167610. 696.331   1
  -1   4  -1 152506. 647.632   1
   1   4   2 135859. 663.772   1
   1   4   3 41105.6 443.332   1
   1   4   4 144087. 400.531   1
  -1  -4  -5 87793.3 398.038   1
  -1  -4  -6 2437.39 130.370   1
   1   4   7 5096.03 152.174   1
  -1   4  -8 5525.08 264.822   1
  -1  -5   8 19960.0 284.585   1
  -1  -5   7 9040.99 160.055   1
   1  -5  -6 15277.7 225.272   1
   1  -5  -5 121583. 446.741   1
   1   5  -4 8856.02 178.703   1
  -1  -5   3 53567.4 633.403   1
  -1  -5   2 69.8710 179.538   1
  -1  -5   1 8732.64 214.297   1
   1  -5   0 5780.91 212.485   1
   1  -5   1 10550.2 251.292   1
  -1  -5  -2 14277.8 314.410   1
  -1   5  -3 10653.8 337.729   1
   1  -5   4 29277.6 223.063   1
  -1   5  -5 64175.4 351.433   1
  -1  -5  -6 25234.2 216.091   1
   1  -5   7 4180.55 124.227   1
  -1   6   7 1130.87 112.024   1
   1  -6  -6 19591.8 206.229   1
   1  -6  -5 140100. 540.931   1
   1   6  -4 140618. 509.623   1
   1  -6  -3 22062.2 244.161   1
  -1  -6   2 47594.0 612.557   1
   1  -6  -1 94014.8 609.541   1
   1  -6   0 566039. 1453.87   1
  -1   6  -1 232663. 959.052   1
  -1  -6  -2 24549.1 461.743   1
   1   6   3 893.918 123.951   1
  -1   6  -4 100684. 370.004   1
  -1   6  -5 191755. 575.664   1
   1  -6   6 66572.6 309.353   1
   1  -6   7 2892.72 106.338   1
   1  -7  -7-39.5825 96.6246   1
   1  -7  -6 1213.92 121.097   1
  -1  -7   5 20744.2 250.552   1
  -1  -7   4 621.194 149.007   1
   1   7  -3 454.240 125.973   1
   1   7  -2 281.860 141.496   1
  -1  -7   1 288.960 204.500   1
  -1  -7   0 609.221 177.532   1
  -1  -7  -1 1687.89 204.075   1
   1   7   2 1436.02 117.428   1
  -1   7  -3 718.020 143.307   1
  -1   7  -4 2518.83 137.367   1
   1  -7   5 11150.6 222.402   1
  -1  -7  -6 1479.68 131.519   1
  -1   7  -7 77.8555 76.1122   1
   1  -8  -7 587.838 97.3424   1
   1  -8  -6 1704.37 112.150   1
   1  -8  -5 78634.5 405.476   1
   1   8  -4 148347. 595.895   1
   1  -8  -3 21803.1 223.293   1
  -1  -8   2 3137.67 150.105   1
   1   8  -1 68487.4 354.766   1
   1  -8   0 415558. 940.493   1
   1  -8   1 141971. 510.190   1
  -1  -8  -2 5383.16 161.410   1
   1  -8   3 3006.02 167.497   1
  -1   8  -4 88078.2 403.844   1
   1  -8   5 113428. 465.854   1
   1  -8   6 9108.65 140.776   1
  -1   9   6 26701.1 192.037   1
   1  -9  -5 38372.0 262.387   1
   1   9  -4 13341.7 215.838   1
   1  -9  -3 96996.5 485.303   1
  -1  -9   2 266.756 129.946   1
   1   9  -1 38353.6 329.300   1
  -1  -9   0 5599.48 173.025   1
  -1  -9  -1 14203.5 213.355   1
   1  -9   2 18636.4 229.430   1
  -1   9  -3 57160.2 392.174   1
   1  -9   4 38231.5 305.184   1
  -1   9  -5 13299.9 188.288   1
   1  -9   6 40121.8 193.317   1
   1 -10  -6 6671.64 115.475   1
   1 -10  -5 23294.7 183.906   1
   1  10  -4 57381.6 321.688   1
   1  10  -3 50010.9 318.450   1
   1  10  -2 47817.9 363.496   1
   1  10  -1 44300.7 368.439   1
   1  10   0 2238.83 216.751   1
  -1 -10  -1 41244.2 390.853   1
   1  10   2 64175.9 395.040   1
  -1  10  -3 53253.4 375.478   1
   1  10   4 62808.2 372.692   1
   1 -10   5 22588.7 206.489   1
  -1  10  -6 6215.46 116.904   1
   1 -11  -5 9620.59 160.597   1
   1  11  -4 8420.41 152.067   1
   1 -11  -3 17004.7 237.065   1
   1  11  -2 1952.29 169.097   1
   1  11  -1 114222. 555.824   1
   1  11   0 4098.37 194.327   1
   1  11   1 126858. 627.030   1
   1  11   2 19434.6 300.721   1
  -1  11  -3 8572.21 177.497   1
   1 -11   4 28175.9 235.001   1
   1  11   5 726.868 95.5343   1
   1  12  -5 948.923 203.002   1
   1 -12  -4 1746.52 124.787   1
   1 -12  -3 49147.6 304.542   1
   1 -12  -2 170015. 624.157   1
  -1 -12   1 40056.7 339.684   1
   1  12   0 9658.27 212.701   1
  -1 -12  -1 10169.2 280.675   1
  -1 -12  -2 122460. 660.653   1
   1  12   3 92636.6 379.820   1
  -1  12  -4 1243.42 104.577   1
   1  13  -4 41.1825 109.052   1
   1  13  -3 2600.54 120.808   1
   1  13  -2 48.1333 124.253   1
   1  13  -1 960.875 149.317   1
   1  13   1 755.048 441.710  -2
  -1 -13   1 755.048 441.710   1
  -1 -13   0 157.797 168.252   1
  -1 -13  -1 86.6405 172.834   1
  -1 -13  -2 158.190 135.099   1
   1  13   3 4015.99 154.369   1
  -1  14   2 79670.2 383.963   1
   1 -14  -1 30616.7 271.063   1
   1 -14   0 882.211 166.237   1
   1  14   0 1437.70 352.961  -2
  -1 -14   0 1437.70 352.961   1
   1 -14   1 7056.25 152.356   1
   1 -14   2 62802.9 285.493   1
   2   0  -7 773.103 206.600   1
   2   0  -6 1501.07 290.752   1
  -2   0   5 88591.9 740.915   1
  -2   0   4 158970. 911.502   1
   2   0  -3 37943.7 1002.97   1
   2   0  -2 1513.09 373.498   1
   2   0  -1 36807.9 877.999   1
   2   0   0 997730. 4142.06   1
   2   0   1 304818. 2382.11   1
   2   0   2 3294.21 479.043   1
   2   0   3 4612.70 186.579   1
   2   0   4 39276.5 419.732   1
   2   0   5 189497. 854.512   1
   2   0   6 49456.7 423.707   1
  -2   0  -7 2991.44 144.585   1
   2  -1  -8 2847.92 252.082   1
   2  -1  -7 13359.1 271.478   1
   2   1  -6 5213.16 225.482   1
  -2   1   5 25295.3 328.521   1
   2  -1  -4 877.786 164.682   1
   2  -1  -3 73733.0 583.764   1
   2  -1  -2 2343.54 315.956   1
   2  -1  -1 2852.73 295.137   1
   2  -1   0 6537.87 319.138   1
   2  -1   1 15213.7 462.789   1
   2  -1   2 10808.7 438.997   1
   2   1   3 21794.3 217.750   1
   2  -1   4 12996.0 193.002   1
   2  -1   5 6253.24 179.445   1
   2  -1   6 14371.4 205.458   1
  -2   1  -7 644.647 92.0875   1
  -2  -2   7 4310.10 185.741   1
   2   2  -6 2000.42 197.947   1
   2  -2  -5 67629.1 447.779   1
   2  -2  -4 162659. 607.598   1
   2  -2  -3 60798.9 405.378   1
   2  -2  -2 1123.64 304.634   1
   2  -2  -1 45177.5 467.295   1
   2  -2   0 105058. 896.255   1
   2  -2   1 170139. 1181.53   1
   2  -2   2 19251.3 539.636   1
   2  -2   3 9193.67 159.541   1
   2  -2   4 100635. 409.462   1
   2  -2   5 114727. 476.685   1
   2  -2   6 28620.4 277.863   1
  -2   2  -7 770.103 98.7709   1
  -2  -3   7 12105.6 244.722   1
  -2  -3   6 17069.1 306.665   1
   2  -3  -5 96721.9 519.955   1
   2  -3  -4 3470.12 183.955   1
   2  -3  -3 88252.8 428.287   1
   2  -3  -2 977.599 313.800   1
   2  -3  -1 85697.0 819.690   1
   2  -3   0 31108.4 598.805   1
   2  -3   1 87617.9 950.885   1
   2  -3   2 66237.2 464.387   1
   2  -3   3 8085.26 163.396   1
   2  -3   4 69851.9 357.964   1
   2  -3   5 10765.3 185.657   1
   2  -3   6 45690.0 323.344   1
  -2   3  -7 580.157 101.592   1
  -2  -4   7 27688.4 297.757   1
  -2  -4   6 16617.5 293.709   1
   2  -4  -5 15155.2 276.206   1
   2  -4  -4 53675.5 407.941   1
   2  -4  -3 61593.4 409.695   1
   2  -4  -2 210929. 938.172   1
   2  -4  -1 89996.8 1043.82   1
   2  -4   0 10051.9 432.830   1
   2  -4   1 33791.6 580.395   1
   2  -4   2 181496. 594.860   1
   2  -4   3 103505. 439.658   1
   2  -4   4 44873.2 337.222   1
   2   4   5 7970.45 198.011   1
   2   4   6 1761.65 154.903   1
   2   4   7 31315.5 284.575   1
  -2  -5   7 7942.90 184.543   1
  -2  -5   6 7596.90 228.593   1
   2  -5  -5 564.767 194.209   1
   2  -5  -4 3271.38 190.132   1
   2  -5  -3 33212.4 284.805   1
   2  -5  -2 122.552 129.895   1
   2   5  -1 133166. 588.120   1
   2   5   0 11810.0 204.401   1
   2   5   1 79955.2 362.619   1
   2  -5   2 32921.8 324.782   1
   2   5   3 28786.2 288.848   1
   2   5   4 32500.9 321.574   1
   2   5   5 11481.2 251.296   1
  -2   5  -6 23198.0 223.927   1
  -2  -5  -7 7209.14 276.356   1
  -2  -6   7 71243.6 357.511   1
   2  -6  -6 147459. 612.761   1
   2  -6  -5 7237.61 285.447   1
   2  -6  -4 29424.7 347.710   1
   2   6  -3 49556.0 348.313   1
   2   6  -2 183181. 577.682   1
   2  -6  -1 119174. 494.580   1
  -2   6   0 1812.90 151.599   1
   2   6   1 4038.09 160.975   1
   2  -6   2 94900.6 509.557   1
   2   6   3 186111. 655.132   1
  -2   6  -4 5706.45 190.212   1
   2   6   5 3907.97 182.629   1
  -2   6  -6 63692.1 343.263   1
   2  -7  -6 875.351 151.591   1
   2   7  -5 3188.21 207.529   1
   2   7  -4 887.327 203.421   1
   2   7  -3 5496.23 210.245   1
   2  -7  -2 199.348 154.233   1
   2   7  -1 11898.8 216.472   1
   2   7   0 670.325 171.327   1
  -2  -7  -1 2513.56 196.348   1
   2  -7   2 2517.22 183.839   1
  -2   7  -3 6912.84 197.828   1
  -2   7  -4 2586.70 177.846   1
  -2   7  -5 4890.50 172.265   1
  -2   7  -6 1809.62 109.940   1
   2  -8  -6 65141.2 349.594   1
   2  -8  -5 4768.60 182.220   1
   2  -8  -4 791.112 191.928   1
   2   8  -3 38818.8 394.062   1
   2   8  -2 223721. 886.137   1
   2   8  -1 84682.5 468.229   1
   2   8   0 11124.6 204.205   1
   2   8   1 7499.45 215.739   1
   2   8   2 124873. 893.433   1
  -2   8  -3 118578. 643.805   1
  -2   8  -4 5795.43 194.986   1
  -2   8  -5 1351.58 145.865   1
  -2  -8  -6 11421.9 322.348   1
   2   9  -6 8262.26 176.378   1
   2  -9  -5 18583.8 217.901   1
   2  -9  -4 3177.71 185.482   1
   2   9  -3 29101.8 371.949   1
   2   9  -2 254.744 206.162   1
   2   9  -1 89836.4 443.093   1
   2   9   0 13814.0 260.112   1
   2   9   1 108604. 566.083   1
  -2  -9  -2 40657.4 444.723   1
  -2  -9  -3 3885.74 237.638   1
  -2   9  -4 38813.5 294.741   1
  -2   9  -5 170.551 125.041   1
   2 -10  -5 22923.4 189.770   1
   2 -10  -4 50897.1 339.610   1
   2  10  -3 31229.0 355.098   1
   2  10  -2 19426.0 310.592   1
   2  10  -1 30934.4 329.196   1
   2  10   0 2816.65 174.921   1
  -2 -10  -1 35513.9 372.604   1
  -2 -10  -2 47189.1 368.064   1
  -2 -10  -3 26307.3 298.516   1
  -2  10  -4 44868.0 300.358   1
   2 -11  -4 1964.16 112.634   1
   2  11  -3 67187.0 382.880   1
   2  11  -2 1698.12 203.816   1
   2  11  -1 17309.3 259.327   1
   2  11   0 8616.71 211.109   1
   2  11   1 1259.77 168.002   1
  -2 -11  -2 19309.0 231.574   1
  -2 -11  -3 18260.2 200.521   1
  -2 -11  -4 24353.9 248.555   1
   2  12  -3 15792.7 181.051   1
   2  12  -2 621.924 139.001   1
   2  12  -1 12048.9 197.879   1
   2 -12   0 178070. 633.863   1
   2 -12   1 79034.4 375.024   1
  -2 -12  -2 1354.28 110.518   1
  -2 -12  -3 949.153 157.016   1
   2 -13  -2 64.6615 107.291   1
   2 -13  -1 120.756 114.378   1
   2 -13   0 100.005 100.830   1
  -2 -13  -1 1579.90 119.471   1
   3   0  -6 121245. 1195.46   1
   3   0  -5 7964.93 383.705   1
   3   0  -4 23334.1 855.106   1
   3   0  -3 13898.9 450.236   1
   3   0  -2 245168. 1758.29   1
  -3   0  -1 247880. 1401.72  -2
   3   0  -2 247880. 1401.72   1
   3   0  -1 128046. 1222.88   1
  -3   0   0 155765. 1103.14  -2
   3   0  -1 155765. 1103.14   1
   3   0   0 31369.5 668.467   1
   3   0  -1 136851. 1259.34  -2
  -3   0   0 136851. 1259.34   1
   3   0   1 705.325 384.143   1
   3   0  -2 211760. 3363.50  -2
  -3   0  -1 211760. 3363.50   1
   3   0   2 51322.5 1061.63   1
   3   0   3 142364. 872.238   1
   3   0   4 3978.32 219.739   1
   3   0   5 5936.63 271.254   1
   3   0   6 13375.8 311.399   1
   3  -1  -6 945.372 196.983   1
   3   1  -5 3261.40 240.470   1
   3  -1  -4 37.7066 279.819   1
   3   1  -3 1466.60 250.101   1
   3  -1  -2 661.412 237.912   1
  -3   1  -1 50045.8 585.318  -2
   3  -1  -2 50045.8 585.318   1
   3  -1  -1 25454.9 360.791   1
  -3  -1   0 32595.2 493.051  -2
   3   1  -1 32595.2 493.051   1
   3  -1   0 8129.73 271.591   1
   3   1  -1 27668.0 523.925  -2
  -3  -1   0 27668.0 523.925   1
   3  -1   1 57810.8 613.845   1
   3   1  -2 59600.3 923.950  -2
  -3  -1  -1 59600.3 923.950   1
   3  -1   2 14865.1 282.473   1
   3  -1   3 211.118 187.844   1
   3  -1   4 11297.8 224.969   1
   3   1   5 3034.70 134.923   1
   3  -1   6 4517.84 162.075   1
   3  -2  -6 41252.4 414.653   1
   3  -2  -5 15797.4 384.775   1
   3   2  -4 1418.13 255.147   1
   3   2  -3 24401.7 411.808   1
   3  -2  -2 76718.2 633.601   1
  -3  -2  -1 86103.6 1296.31  -2
   3   2  -2 86103.6 1296.31   1
   3  -2  -1 71660.2 669.154   1
  -3  -2   0 76425.3 661.698  -2
   3   2  -1 76425.3 661.698   1
   3  -2   0 1218.91 307.393   1
  -3   2   1 59614.3 599.746  -2
   3  -2   0 59614.3 599.746   1
   3  -2   1 4234.40 469.318   1
  -3   2   2 69317.9 652.027  -2
   3  -2   1 69317.9 652.027   1
   3   2   2 70853.8 450.424   1
   3   2   3 94564.4 636.967   1
   3   2   4 30054.2 335.320   1
   3   2   5 925.050 132.078   1
  -3   2  -6 9962.91 162.022   1
   3  -3  -6 4314.29 206.315   1
   3   3  -5 17217.7 316.258   1
   3   3  -4 1688.70 255.745   1
   3   3  -3 60926.6 509.712   1
   3   3  -2 10137.4 525.380   1
  -3  -3  -1 27601.5 521.028  -2
   3   3  -2 27601.5 521.028   1
   3  -3  -1 71130.5 680.172   1
  -3  -3   0 103620. 934.219  -2
   3   3  -1 103620. 934.219   1
   3  -3   0 32878.3 630.121   1
  -3   3   1 94504.1 734.218  -2
   3  -3   0 94504.1 734.218   1
   3  -3   1 20730.1 410.494   1
  -3   3   2 29918.4 952.438  -2
   3  -3   1 29918.4 952.438   1
   3  -3   2 50448.1 450.421   1
   3   3   3 13513.6 258.428   1
   3   3   4 45347.7 337.296   1
   3   3   5 3238.19 151.684   1
   3  -4  -6 820.772 228.563   1
   3   4  -5 18410.4 316.420   1
   3   4  -4 96019.8 706.513   1
   3   4  -3 34689.0 414.793   1
   3  -4  -2 23417.7 777.655   1
  -3  -4  -1 76515.9 916.644  -2
   3   4  -2 76515.9 916.644   1
   3  -4  -1 19351.8 714.875   1
  -3  -4   0 55641.3 793.848  -2
   3   4  -1 55641.3 793.848   1
   3  -4   0 40609.9 652.643   1
  -3  -4   1 59840.7 643.298  -2
   3   4   0 59840.7 643.298   1
   3  -4   1 60612.3 621.871   1
  -3   4   2 87638.4 1436.18  -2
   3  -4   1 87638.4 1436.18   1
   3  -4   2 41782.5 429.648   1
   3  -4   3 8410.49 210.570   1
   3   4   4 25228.5 283.500   1
  -3   4  -5 34226.3 285.176   1
   3  -5  -6 1700.30 207.476   1
   3   5  -5 63137.3 472.579   1
   3   5  -4 126.479 253.054   1
   3   5  -3 37047.8 477.846   1
  -3   5  -2 58298.4 798.741  -2
   3  -5  -3 58298.4 798.741   1
   3   5  -2 4544.02 384.011   1
  -3  -5  -1 7038.15 355.369  -2
   3   5  -2 7038.15 355.369   1
   3  -5  -1 3159.77 514.406   1
  -3  -5   0 14297.1 447.724  -2
   3   5  -1 14297.1 447.724   1
   3   5   0 13770.7 666.113   1
  -3  -5   1 16627.0 567.034  -2
   3   5   0 16627.0 567.034   1
   3   5   1 2151.05 376.014   1
  -3   5   2 4791.02 467.188  -2
   3  -5   1 4791.02 467.188   1
   3  -5   2 17774.4 278.146   1
   3   5  -3 57595.9 964.496  -2
  -3  -5  -2 57595.9 964.496   1
   3  -5   3 142.770 159.490   1
  -3   5  -4 18921.8 226.841   1
  -3   5  -5 6067.45 151.036   1
   3   6  -5 30227.0 387.029   1
   3   6  -4 60554.7 496.232   1
   3  -6  -3 33405.4 590.303   1
  -3  -6  -2 38181.6 627.257  -2
   3   6  -3 38181.6 627.257   1
   3   6  -2 11401.4 686.680   1
  -3  -6  -1 127077. 699.027  -2
   3   6  -2 127077. 699.027   1
   3   6  -1 4084.12 401.811   1
  -3  -6   0 133536. 1128.02  -2
   3   6  -1 133536. 1128.02   1
  -3  -6   1 181537. 1054.32  -2
   3   6   0 181537. 1054.32   1
   3  -6   1 132775. 1052.07   1
   3   6  -2 144341. 892.218  -2
  -3  -6  -1 144341. 892.218   1
   3  -6   2 956.046 168.858   1
   3   6  -3 36655.7 834.904  -2
  -3  -6  -2 36655.7 834.904   1
   3  -6   3 4059.53 181.979   1
  -3   6  -4 20089.4 230.292   1
   3   6   5 91563.8 701.314   1
   3   7  -5 10632.7 232.594   1
   3   7  -4 181.361 213.431   1
   3   7  -3 1381.05 253.535   1
  -3  -7  -2 3372.39 364.811  -2
   3   7  -3 3372.39 364.811   1
   3  -7  -2-138.586 414.361   1
  -3  -7  -1 364.374 328.888  -2
   3   7  -2 364.374 328.888   1
  -3  -7   0 1229.39 322.714  -2
   3   7  -1 1229.39 322.714   1
   3   7   0 1478.33 429.240   1
  -3  -7   1 1195.72 464.844  -2
   3   7   0 1195.72 464.844   1
   3   7   1 773.201 373.483   1
   3   7  -2 1840.85 419.796  -2
  -3  -7  -1 1840.85 419.796   1
   3  -7   2 1441.89 203.979   1
   3   7  -3 3212.54 524.225  -2
  -3  -7  -2 3212.54 524.225   1
  -3  -7  -3 1514.28 180.580   1
   3   7   4 1223.70 159.887   1
   3  -8  -5 15692.8 395.990   1
   3   8  -4 85756.7 742.834   1
   3   8  -3 28783.8 418.848   1
  -3  -8  -2 37410.5 652.162  -2
   3   8  -3 37410.5 652.162   1
   3  -8  -2 1093.21 384.188   1
  -3  -8  -1 81847.5 655.308  -2
   3   8  -2 81847.5 655.308   1
   3   8  -1 6048.65 535.422   1
  -3  -8   0 115350. 817.819  -2
   3   8  -1 115350. 817.819   1
   3   8   0 128316. 1280.85   1
  -3  -8   1 135120. 1092.48  -2
   3   8   0 135120. 1092.48   1
   3   8  -2 91505.4 696.306  -2
  -3  -8  -1 91505.4 696.306   1
   3   8   2 4139.04 282.700   1
   3   8  -3 31546.0 571.463  -2
  -3  -8  -2 31546.0 571.463   1
  -3  -8  -3 1018.83 160.789   1
   3   8   4 13858.1 241.520   1
   3   9  -4 30.0019 189.030   1
   3   9  -3 59211.1 946.819   1
  -3  -9  -2 82162.3 746.515  -2
   3   9  -3 82162.3 746.515   1
   3  -9  -2 5472.95 379.799   1
  -3  -9  -1 7214.30 351.702  -2
   3   9  -2 7214.30 351.702   1
   3   9  -1 21149.2 604.834   1
  -3  -9   0 37349.3 493.069  -2
   3   9  -1 37349.3 493.069   1
   3   9   0 19716.8 517.311   1
  -3  -9   1 36388.7 489.122  -2
   3   9   0 36388.7 489.122   1
   3   9  -2 5242.49 311.763  -2
  -3  -9  -1 5242.49 311.763   1
   3  -9   2 25336.9 436.505   1
   3   9  -3 80024.2 932.708  -2
  -3  -9  -2 80024.2 932.708   1
  -3  -9  -3 5850.53 185.585   1
   3  10  -3 19463.4 259.193   1
  -3 -10  -1 27696.1 369.006  -2
   3  10  -2 27696.1 369.006   1
   3  10  -1 19379.2 316.772   1
  -3 -10   0 21438.4 463.293  -2
   3  10  -1 21438.4 463.293   1
   3  10  -1 18201.3 346.222  -2
  -3 -10   0 18201.3 346.222   1
   3  10  -2 26378.1 349.880  -2
  -3 -10  -1 26378.1 349.880   1
   3 -10   2 33839.0 390.380   1
   3  10  -3 57059.9 679.490  -2
  -3 -10  -2 57059.9 679.490   1
  -3 -11   0 43563.9 669.937  -2
   3  11  -1 43563.9 669.937   1
  -3 -11   1 35232.7 545.380  -2
   3  11   0 35232.7 545.380   1
   4   0  -4 46535.0 796.448   1
   4   0  -3 31478.4 685.970   1
   4   0  -2 5938.29 441.236   1
  -4   0  -1 104420. 1174.08  -2
   4   0  -2 104420. 1174.08   1
  -4   0   0 107717. 1301.76  -2
   4   0  -1 107717. 1301.76   1
  -4   0   1 115062. 1361.14  -2
   4   0   0 115062. 1361.14   1
  -4   0   2 100215. 1285.33  -2
   4   0   1 100215. 1285.33   1
  -4   0   3 26109.6 809.859  -2
   4   0   2 26109.6 809.859   1
   4   0   3 6294.05 425.791   1
   4  -1  -4 171.817 240.566   1
   4   1  -3 15137.6 548.952   1
  -4   1  -2 18878.1 668.232  -2
   4  -1  -3 18878.1 668.232   1
   4  -1  -2 4441.51 283.600   1
  -4  -1  -1 6851.99 623.472  -2
   4   1  -2 6851.99 623.472   1
  -4   1   0 7233.47 301.470  -2
   4  -1  -1 7233.47 301.470   1
  -4   1   1 7586.50 376.370  -2
   4  -1   0 7586.50 376.370   1
  -4   1   2 7850.59 466.393  -2
   4  -1   1 7850.59 466.393   1
  -4   1   3 16636.8 509.098  -2
   4  -1   2 16636.8 509.098   1
   4  -1   3 354.579 226.344   1
   4  -2  -4 33645.9 456.767   1
   4   2  -3 24300.8 357.255   1
   4  -2  -2 3936.23 420.933   1
  -4  -2  -1 47131.6 943.363  -2
   4   2  -2 47131.6 943.363   1
  -4   2   0 21770.7 446.486  -2
   4  -2  -1 21770.7 446.486   1
  -4   2   1 22096.2 461.721  -2
   4  -2   0 22096.2 461.721   1
  -4   2   2 54640.9 588.761  -2
   4  -2   1 54640.9 588.761   1
   4   2   2 14675.3 578.710   1
  -4   2   3 30188.5 831.868  -2
   4  -2   2 30188.5 831.868   1
   4  -2   3 605.127 206.848   1
   4  -3  -4 2009.02 309.871   1
   4   3  -3 24407.5 460.026   1
  -4  -3  -1 16226.9 483.414  -2
   4   3  -2 16226.9 483.414   1
  -4  -3   0 35772.1 647.781  -2
   4   3  -1 35772.1 647.781   1
  -4   3   1 33660.9 516.694  -2
   4  -3   0 33660.9 516.694   1
  -4   3   2 16044.8 421.676  -2
   4  -3   1 16044.8 421.676   1
   4   3   2 33630.5 697.693   1
  -4   3   3 47181.4 846.628  -2
   4  -3   2 47181.4 846.628   1
   4  -3   3 560.392 232.295   1
   4   4  -3 8585.29 506.608   1
  -4   4  -2 39426.0 744.962  -2
   4  -4  -3 39426.0 744.962   1
  -4  -4  -1 39258.7 914.342  -2
   4   4  -2 39258.7 914.342   1
  -4  -4   0 33517.7 624.109  -2
   4   4  -1 33517.7 624.109   1
  -4  -4   1 31698.9 608.029  -2
   4   4   0 31698.9 608.029   1
  -4   4   2 33899.6 459.263  -2
   4  -4   1 33899.6 459.263   1
   4   4   2 28876.6 583.400   1
  -4   4   3 31994.5 616.228  -2
   4  -4   2 31994.5 616.228   1
   4   5  -3 4075.56 429.082   1
  -4  -5  -1 11360.2 674.492  -2
   4   5  -2 11360.2 674.492   1
  -4  -5   0 36265.2 615.026  -2
   4   5  -1 36265.2 615.026   1
  -4  -5   1 34662.7 585.301  -2
   4   5   0 34662.7 585.301   1
  -4  -5   2 11677.0 417.784  -2
   4   5   1 11677.0 417.784   1
  -4  -6  -1 56434.5 936.931  -2
   4   6  -2 56434.5 936.931   1
  -4  -6   0 67243.9 668.203  -2
   4   6  -1 67243.9 668.203   1
  -4  -6   1 58346.5 609.187  -2
   4   6   0 58346.5 609.187   1
  -4   6   2 42572.1 775.259  -2
   4  -6   1 42572.1 775.259   1
  -4   7   0 3071.53 387.464  -2
   4  -7  -1 3071.53 387.464   1
  -4   7   1 3571.96 399.410  -2
   4  -7   0 3571.96 399.410   1
   0   0   0 0.00000 0.00000   0
TITL CRJPLC-2_gaussian_twin1_hklf4 in P2(1)/m
REM P2(1)/m (#11 in standard setting)
CELL 1.54184   3.668831  12.102996   7.062826  90.0000  94.2359  90.0000
ZERR    2.00   0.000178   0.000458   0.000252   0.0000   0.0038   0.0000
LATT  1
SYMM -x, y+1/2,-z
SFAC C H N Cl Cr
UNIT 8.00 8.00 4.00 4.00 2.00
TREF
HKLF 5

BASF 0.43274
END
;
_shelx_hkl_checksum                9160
loop_
  _audit_author_name
  _audit_author_email
  _audit_author_address
 'Pitcairn, J.' ? ?
 'Cliffe, M.' ? ?

_audit_contact_author_address      ?
_audit_contact_author_email        ?
_audit_contact_author_name         'Pitcairn, J.'
_audit_contact_author_phone        ?
_olex2_exptl_crystal_mounting_method  'in fomblin film on a micromount'
_olex2_submission_original_sample_id  CRJPLC-2_sakahe
_olex2_submission_special_instructions  'No special instructions were received'
_oxdiff_exptl_absorpt_empirical_details
;
Empirical correction (ABSPACK) includes:
- Absorption correction using spherical harmonics
- Frame scaling
;
_oxdiff_exptl_absorpt_empirical_full_max  1.353
_oxdiff_exptl_absorpt_empirical_full_min  0.767
_oxdiff_twin_integration_method    simultaneous
_oxdiff_twin_items                 2
loop_
  _twin_individual_id
  _twin_individual_mass_fraction_refined
  _oxdiff_twin_reflns_isolated
  _oxdiff_twin_reflns_overlapped
  _twin_individual_twin_lattice_type
  _twin_individual_twin_matrix_11
  _twin_individual_twin_matrix_12
  _twin_individual_twin_matrix_13
  _twin_individual_twin_matrix_21
  _twin_individual_twin_matrix_22
  _twin_individual_twin_matrix_23
  _twin_individual_twin_matrix_31
  _twin_individual_twin_matrix_32
  _twin_individual_twin_matrix_33
 1 0.542(3) 3035 1009 ref 1.0000 0.0000 0.0000 0.0000 1.0000 0.0000 0.0000 0.0000
 1.0000
 2 0.458(3) 0 1009 nmt -0.9999 -0.0000 0.0001 0.0000 -0.9999 0.0003 0.2830 0.0001
 1.0002

_twin_special_details
;
Component 2 rotated by -179.9969\%
 around [-0.00 0.00 1.00] (reciprocal) or [0.14 0.00 0.99] (direct)
;
